p edge 39 96
e 1 7
e 1 9
e 1 16
e 1 18
e 1 20
e 1 27
e 1 29
e 1 31
e 1 38
e 2 6
e 2 8
e 2 16
e 2 17
e 2 19
e 2 27
e 2 28
e 2 30
e 2 38
e 3 7
e 3 10
e 3 16
e 3 18
e 3 21
e 3 27
e 3 29
e 3 32
e 3 38
e 4 6
e 4 10
e 4 16
e 4 17
e 4 21
e 4 27
e 4 28
e 4 32
e 4 38
e 5 8
e 5 9
e 5 16
e 5 19
e 5 20
e 5 27
e 5 30
e 5 31
e 5 38
e 6 18
e 6 20
e 6 23
e 6 25
e 6 39
e 7 17
e 7 19
e 7 22
e 7 24
e 7 39
e 8 18
e 8 21
e 8 23
e 8 26
e 8 39
e 9 17
e 9 21
e 9 22
e 9 26
e 9 39
e 10 19
e 10 20
e 10 24
e 10 25
e 10 39
e 11 18
e 11 20
e 11 27
e 11 39
e 12 17
e 12 19
e 12 27
e 12 39
e 13 18
e 13 21
e 13 27
e 13 39
e 14 17
e 14 21
e 14 27
e 14 39
e 15 19
e 15 20
e 15 27
e 15 39
e 16 22
e 16 23
e 16 24
e 16 25
e 16 26
e 16 39
